c [-tl=1800000, -p=4, instances/xcsp3/FrequencyAllocationXCSP3-m2-celar_250_25_15_5_0.820000_20.xml]
c 4 solvers in parallel
c parse instance...
c solve instance...
o 75964 
o 75936 
o 75908 
o 72548 
o 71316 
s SATISFIABLE
v <instantiation>
v 	<list>T[0] T[1] T[2] T[3] T[4] T[5] T[6] T[7] T[8] T[9] T[10] T[11] T[12] T[13] T[14] T[15] T[16] T[17] T[18] T[19] T[20] T[21] T[22] T[23] T[24] T[25] T[26] T[27] T[28] T[29] T[30] T[31] T[32] T[33] T[34] T[35] T[36] T[37] T[38] T[39] T[40] T[41] T[42] T[43] T[44] T[45] T[46] T[47] T[48] T[49] T[50] T[51] T[52] T[53] T[54] T[55] T[56] T[57] T[58] T[59] T[60] T[61] T[62] T[63] T[64] T[65] T[66] T[67] T[68] T[69] T[70] T[71] T[72] T[73] T[74] T[75] T[76] T[77] T[78] T[79] T[80] T[81] T[82] T[83] T[84] T[85] T[86] T[87] T[88] T[89] T[90] T[91] T[92] T[93] T[94] T[95] T[96] T[97] T[98] T[99] T[100] T[101] T[102] T[103] T[104] T[105] T[106] T[107] T[108] T[109] T[110] T[111] T[112] T[113] T[114] T[115] T[116] T[117] T[118] T[119] T[120] T[121] T[122] T[123] T[124] T[125] T[126] T[127] T[128] T[129] T[130] T[131] T[132] T[133] T[134] T[135] T[136] T[137] T[138] T[139] T[140] T[141] T[142] T[143] T[144] T[145] T[146] T[147] T[148] T[149] T[150] T[151] T[152] T[153] T[154] T[155] T[156] T[157] T[158] T[159] T[160] T[161] T[162] T[163] T[164] T[165] T[166] T[167] T[168] T[169] T[170] T[171] T[172] T[173] T[174] T[175] T[176] T[177] T[178] T[179] T[180] T[181] T[182] T[183] T[184] T[185] T[186] T[187] T[188] T[189] T[190] T[191] T[192] T[193] T[194] T[195] T[196] T[197] T[198] T[199] T[200] T[201] T[202] T[203] T[204] T[205] T[206] T[207] T[208] T[209] T[210] T[211] T[212] T[213] T[214] T[215] T[216] T[217] T[218] T[219] T[220] T[221] T[222] T[223] T[224] T[225] T[226] T[227] T[228] T[229] T[230] T[231] T[232] T[233] T[234] T[235] T[236] T[237] T[238] T[239] T[240] T[241] T[242] T[243] T[244] T[245] T[246] T[247] T[248] T[249] R[0] R[1] R[2] R[3] R[4] R[5] R[6] R[7] R[8] R[9] R[10] R[11] R[12] R[13] R[14] R[15] R[16] R[17] R[18] R[19] R[20] R[21] R[22] R[23] R[24] R[25] R[26] R[27] R[28] R[29] R[30] R[31] R[32] R[33] R[34] R[35] R[36] R[37] R[38] R[39] R[40] R[41] R[42] R[43] R[44] R[45] R[46] R[47] R[48] R[49] R[50] R[51] R[52] R[53] R[54] R[55] R[56] R[57] R[58] R[59] R[60] R[61] R[62] R[63] R[64] R[65] R[66] R[67] R[68] R[69] R[70] R[71] R[72] R[73] R[74] R[75] R[76] R[77] R[78] R[79] R[80] R[81] R[82] R[83] R[84] R[85] R[86] R[87] R[88] R[89] R[90] R[91] R[92] R[93] R[94] R[95] R[96] R[97] R[98] R[99] R[100] R[101] R[102] R[103] R[104] R[105] R[106] R[107] R[108] R[109] R[110] R[111] R[112] R[113] R[114] R[115] R[116] R[117] R[118] R[119] R[120] R[121] R[122] R[123] R[124] R[125] R[126] R[127] R[128] R[129] R[130] R[131] R[132] R[133] R[134] R[135] R[136] R[137] R[138] R[139] R[140] R[141] R[142] R[143] R[144] R[145] R[146] R[147] R[148] R[149] R[150] R[151] R[152] R[153] R[154] R[155] R[156] R[157] R[158] R[159] R[160] R[161] R[162] R[163] R[164] R[165] R[166] R[167] R[168] R[169] R[170] R[171] R[172] R[173] R[174] R[175] R[176] R[177] R[178] R[179] R[180] R[181] R[182] R[183] R[184] R[185] R[186] R[187] R[188] R[189] R[190] R[191] R[192] R[193] R[194] R[195] R[196] R[197] R[198] R[199] R[200] R[201] R[202] R[203] R[204] R[205] R[206] R[207] R[208] R[209] R[210] R[211] R[212] R[213] R[214] R[215] R[216] R[217] R[218] R[219] R[220] R[221] R[222] R[223] R[224] R[225] R[226] R[227] R[228] R[229] R[230] R[231] R[232] R[233] R[234] R[235] R[236] R[237] R[238] R[239] R[240] R[241] R[242] R[243] R[244] R[245] R[246] R[247] R[248] R[249] </list>
v 	<values>14 14 196 14 56 84 336 56 98 112 56 14 238 14 56 70 14 14 112 84 252 98 238 140 14 252 56 196 196 70 14 252 28 280 14 14 294 196 238 70 84 56 196 14 196 210 98 14 196 70 28 14 14 56 126 56 112 112 294 56 56 84 196 196 14 70 196 98 266 14 14 28 14 28 14 14 14 14 98 14 14 28 14 28 42 14 14 28 42 14 14 56 280 14 196 98 70 70 14 238 126 294 238 70 14 98 14 140 196 224 14 14 238 56 14 84 14 14 14 252 140 238 56 56 14 308 238 56 294 14 14 14 266 14 266 280 14 14 252 14 70 154 98 70 14 14 238 70 112 42 56 42 56 14 98 196 14 112 238 14 238 14 14 56 14 70 196 280 14 14 70 266 56 14 56 98 126 14 196 210 154 294 140 70 56 14 112 56 14 196 140 14 56 112 14 14 14 126 14 280 84 196 14 238 42 56 56 84 252 14 14 294 14 42 210 56 14 56 14 14 14 70 70 70 308 56 70 56 238 14 210 70 196 238 70 70 14 84 56 70 294 14 42 196 56 196 56 56 84 322 196 196 14 196 238 266 154 238 280 294 238 196 56 196 238 252 196 196 294 266 70 280 56 322 196 70 238 14 14 252 196 70 210 98 196 196 112 14 56 252 266 238 14 196 14 28 280 196 14 252 210 196 196 238 308 238 294 294 112 238 238 266 14 14 196 252 14 280 84 196 196 210 196 210 196 196 196 196 280 196 196 210 196 210 224 196 196 210 224 196 196 238 98 196 14 280 252 252 196 56 308 112 56 252 196 280 196 322 14 42 196 196 56 238 196 266 196 196 196 70 322 56 238 238 196 126 56 238 112 196 196 196 84 196 84 98 196 196 70 196 252 336 280 252 196 196 56 252 294 224 238 224 238 196 280 14 196 294 56 196 56 196 196 238 196 252 14 98 196 196 252 84 238 196 238 280 308 196 14 28 336 112 322 252 238 196 294 238 196 14 322 196 238 294 196 196 196 308 196 98 266 14 196 56 224 238 238 266 70 196 196 112 196 224 28 238 196 238 196 196 196 252 252 252 126 238 252 238 56 196 28 252 14 56 252 252 196 266 238 252 112 196 224 14 238 14 238 238 266 140 </values>
v </instantiation>
real 1802.11
user 7125.28
sys 35.48
